% demand
num_movements = 28;
loading_factor = [1450, 1000, 1600, 950, 1250, 1950, 2000, 950, 1400, 1750, 1350, 1350, 1500, 1400, 2000, 1150, 1800, 1750, 1850, 850, 1100, 850, 1000, 1900, 800, 950, 1500, 1100];
pickup_time = [0, 0, 0, 0, 0, 1, 1, 4, 4, 4, 4, 4, 5, 6, 7, 7, 7, 7, 8, 8, 8, 8, 9, 9, 9, 9, 9, 10];
delivery_time = [2, 1, 1, 2, 1, 3, 2, 7, 7, 5, 7, 5, 7, 7, 8, 9, 8, 8, 9, 11, 9, 9, 10, 11, 11, 11, 10, 11];

% transporter definition
total_capacity = 7000;
num_decks = 3;
capacity = [3000, 1000, 3000];

% ways out of decks
num_ways_out = 1;
paths_out = array3d(decks, ways_out, decks, [
% ways out of deck d1
2, 3, 0, 

% ways out of deck d2
3, 0, 0, 

% ways out of deck d3
0, 0, 0,	

]);

